p edge 852 1572
e 1 5 1
e 1 2 1
e 2 6 1
e 3 10 1
e 3 4 1
e 4 11 1
e 4 5 1
e 5 12 1
e 5 6 1
e 6 13 1
e 7 18 1
e 7 8 1
e 8 19 1
e 8 9 1
e 9 20 1
e 9 10 1
e 10 21 1
e 10 11 1
e 11 22 1
e 11 12 1
e 12 23 1
e 12 13 1
e 13 24 1
e 13 14 1
e 14 25 1
e 14 15 1
e 15 26 1
e 15 16 1
e 16 27 1
e 16 17 1
e 17 28 1
e 18 30 1
e 18 19 1
e 19 31 1
e 19 20 1
e 20 32 1
e 20 21 1
e 21 33 1
e 21 22 1
e 22 34 1
e 22 23 1
e 23 35 1
e 23 24 1
e 24 36 1
e 24 25 1
e 25 37 1
e 25 26 1
e 26 38 1
e 26 27 1
e 27 39 1
e 27 28 1
e 28 40 1
e 29 42 1
e 29 30 1
e 30 43 1
e 30 31 1
e 31 44 1
e 31 32 1
e 32 45 1
e 32 33 1
e 33 46 1
e 33 34 1
e 34 47 1
e 34 35 1
e 35 48 1
e 35 36 1
e 36 49 1
e 36 37 1
e 37 50 1
e 37 38 1
e 38 51 1
e 38 39 1
e 39 52 1
e 39 40 1
e 40 53 1
e 41 58 1
e 41 42 1
e 42 59 1
e 42 43 1
e 43 60 1
e 43 44 1
e 44 45 1
e 45 46 1
e 46 61 1
e 46 47 1
e 47 62 1
e 47 48 1
e 48 63 1
e 48 49 1
e 49 64 1
e 49 50 1
e 50 65 1
e 50 51 1
e 51 66 1
e 51 52 1
e 52 67 1
e 52 53 1
e 53 68 1
e 53 54 1
e 54 69 1
e 54 55 1
e 55 70 1
e 56 71 1
e 56 57 1
e 57 72 1
e 57 58 1
e 58 73 1
e 58 59 1
e 59 74 1
e 59 60 1
e 61 75 1
e 61 62 1
e 62 76 1
e 62 63 1
e 63 77 1
e 63 64 1
e 64 78 1
e 64 65 1
e 65 79 1
e 65 66 1
e 66 80 1
e 66 67 1
e 67 81 1
e 67 68 1
e 68 82 1
e 68 69 1
e 69 83 1
e 69 70 1
e 71 84 1
e 71 72 1
e 72 85 1
e 72 73 1
e 73 86 1
e 73 74 1
e 74 87 1
e 75 88 1
e 75 76 1
e 76 89 1
e 76 77 1
e 77 90 1
e 77 78 1
e 78 91 1
e 78 79 1
e 79 92 1
e 79 80 1
e 80 93 1
e 80 81 1
e 81 94 1
e 81 82 1
e 82 95 1
e 82 83 1
e 84 96 1
e 84 85 1
e 85 97 1
e 85 86 1
e 86 98 1
e 86 87 1
e 87 99 1
e 88 101 1
e 88 89 1
e 89 102 1
e 89 90 1
e 90 103 1
e 90 91 1
e 91 104 1
e 91 92 1
e 92 105 1
e 92 93 1
e 93 106 1
e 93 94 1
e 94 107 1
e 94 95 1
e 95 108 1
e 96 109 1
e 96 97 1
e 97 110 1
e 97 98 1
e 98 111 1
e 98 99 1
e 99 112 1
e 100 101 1
e 101 113 1
e 101 102 1
e 102 114 1
e 102 103 1
e 103 115 1
e 103 104 1
e 104 116 1
e 104 105 1
e 105 117 1
e 105 106 1
e 106 118 1
e 106 107 1
e 107 119 1
e 107 108 1
e 108 120 1
e 109 121 1
e 109 110 1
e 110 122 1
e 110 111 1
e 111 123 1
e 111 112 1
e 112 124 1
e 113 125 1
e 113 114 1
e 114 126 1
e 114 115 1
e 115 127 1
e 115 116 1
e 116 128 1
e 116 117 1
e 117 129 1
e 117 118 1
e 118 130 1
e 118 119 1
e 119 131 1
e 119 120 1
e 120 132 1
e 121 122 1
e 122 134 1
e 122 123 1
e 123 135 1
e 123 124 1
e 124 136 1
e 125 140 1
e 125 126 1
e 126 141 1
e 126 127 1
e 127 142 1
e 127 128 1
e 128 143 1
e 128 129 1
e 129 144 1
e 129 130 1
e 130 145 1
e 130 131 1
e 131 146 1
e 131 132 1
e 132 147 1
e 132 133 1
e 133 148 1
e 134 135 1
e 135 150 1
e 135 136 1
e 136 151 1
e 136 137 1
e 137 152 1
e 137 138 1
e 138 153 1
e 138 139 1
e 139 154 1
e 139 140 1
e 140 155 1
e 140 141 1
e 141 156 1
e 141 142 1
e 142 157 1
e 142 143 1
e 143 158 1
e 143 144 1
e 144 159 1
e 144 145 1
e 145 160 1
e 145 146 1
e 146 161 1
e 146 147 1
e 147 162 1
e 147 148 1
e 148 163 1
e 148 149 1
e 149 164 1
e 150 151 1
e 151 165 1
e 151 152 1
e 152 166 1
e 152 153 1
e 153 167 1
e 153 154 1
e 154 168 1
e 154 155 1
e 155 169 1
e 155 156 1
e 156 170 1
e 156 157 1
e 157 171 1
e 157 158 1
e 158 172 1
e 158 159 1
e 159 173 1
e 159 160 1
e 160 174 1
e 160 161 1
e 161 175 1
e 161 162 1
e 162 176 1
e 162 163 1
e 163 177 1
e 163 164 1
e 164 178 1
e 165 166 1
e 166 179 1
e 166 167 1
e 167 180 1
e 167 168 1
e 168 181 1
e 168 169 1
e 169 182 1
e 169 170 1
e 170 183 1
e 170 171 1
e 171 184 1
e 171 172 1
e 172 185 1
e 172 173 1
e 173 186 1
e 173 174 1
e 174 187 1
e 174 175 1
e 175 188 1
e 175 176 1
e 176 189 1
e 176 177 1
e 177 190 1
e 177 178 1
e 178 191 1
e 179 180 1
e 180 192 1
e 180 181 1
e 181 193 1
e 181 182 1
e 182 194 1
e 182 183 1
e 183 195 1
e 183 184 1
e 184 196 1
e 184 185 1
e 185 197 1
e 185 186 1
e 186 198 1
e 186 187 1
e 187 199 1
e 187 188 1
e 188 200 1
e 188 189 1
e 189 201 1
e 189 190 1
e 190 202 1
e 190 191 1
e 191 203 1
e 192 205 1
e 192 193 1
e 193 206 1
e 193 194 1
e 194 207 1
e 194 195 1
e 195 208 1
e 195 196 1
e 196 209 1
e 196 197 1
e 197 210 1
e 197 198 1
e 198 211 1
e 198 199 1
e 199 212 1
e 199 200 1
e 200 213 1
e 200 201 1
e 201 214 1
e 201 202 1
e 202 215 1
e 202 203 1
e 203 216 1
e 204 205 1
e 205 217 1
e 205 206 1
e 206 218 1
e 206 207 1
e 207 219 1
e 207 208 1
e 208 220 1
e 208 209 1
e 209 221 1
e 209 210 1
e 210 222 1
e 210 211 1
e 211 223 1
e 211 212 1
e 212 224 1
e 212 213 1
e 213 225 1
e 213 214 1
e 214 226 1
e 214 215 1
e 215 227 1
e 215 216 1
e 216 228 1
e 217 229 1
e 217 218 1
e 218 230 1
e 218 219 1
e 219 231 1
e 219 220 1
e 220 232 1
e 220 221 1
e 221 233 1
e 221 222 1
e 222 234 1
e 222 223 1
e 223 235 1
e 223 224 1
e 224 236 1
e 224 225 1
e 225 237 1
e 225 226 1
e 226 238 1
e 226 227 1
e 227 239 1
e 227 228 1
e 228 240 1
e 229 241 1
e 229 230 1
e 230 242 1
e 230 231 1
e 231 243 1
e 231 232 1
e 232 244 1
e 232 233 1
e 233 245 1
e 233 234 1
e 234 246 1
e 234 235 1
e 235 247 1
e 235 236 1
e 236 248 1
e 236 237 1
e 237 249 1
e 237 238 1
e 238 250 1
e 238 239 1
e 239 251 1
e 239 240 1
e 240 252 1
e 241 253 1
e 241 242 1
e 242 254 1
e 242 243 1
e 243 255 1
e 243 244 1
e 244 256 1
e 244 245 1
e 245 257 1
e 245 246 1
e 246 258 1
e 246 247 1
e 247 259 1
e 247 248 1
e 248 260 1
e 248 249 1
e 249 261 1
e 249 250 1
e 250 262 1
e 250 251 1
e 251 263 1
e 251 252 1
e 252 264 1
e 253 265 1
e 253 254 1
e 254 266 1
e 254 255 1
e 255 267 1
e 255 256 1
e 256 268 1
e 256 257 1
e 257 269 1
e 257 258 1
e 258 270 1
e 258 259 1
e 259 271 1
e 259 260 1
e 260 272 1
e 260 261 1
e 261 273 1
e 261 262 1
e 262 274 1
e 262 263 1
e 263 275 1
e 263 264 1
e 264 276 1
e 265 286 1
e 265 266 1
e 266 287 1
e 266 267 1
e 267 288 1
e 267 268 1
e 268 289 1
e 268 269 1
e 269 290 1
e 269 270 1
e 270 291 1
e 270 271 1
e 271 292 1
e 271 272 1
e 272 293 1
e 272 273 1
e 273 294 1
e 273 274 1
e 274 295 1
e 274 275 1
e 275 296 1
e 275 276 1
e 276 297 1
e 277 298 1
e 277 278 1
e 278 299 1
e 278 279 1
e 279 300 1
e 279 280 1
e 280 301 1
e 280 281 1
e 281 302 1
e 281 282 1
e 282 303 1
e 282 283 1
e 283 304 1
e 283 284 1
e 284 305 1
e 285 310 1
e 285 286 1
e 286 311 1
e 286 287 1
e 287 312 1
e 287 288 1
e 288 313 1
e 288 289 1
e 289 290 1
e 290 291 1
e 291 292 1
e 292 314 1
e 292 293 1
e 293 315 1
e 293 294 1
e 294 316 1
e 294 295 1
e 295 317 1
e 295 296 1
e 296 318 1
e 296 297 1
e 297 319 1
e 298 320 1
e 298 299 1
e 299 321 1
e 299 300 1
e 300 322 1
e 300 301 1
e 301 323 1
e 301 302 1
e 302 324 1
e 302 303 1
e 303 325 1
e 303 304 1
e 304 326 1
e 304 305 1
e 305 327 1
e 305 306 1
e 306 328 1
e 306 307 1
e 307 329 1
e 308 333 1
e 308 309 1
e 309 334 1
e 309 310 1
e 310 335 1
e 310 311 1
e 311 336 1
e 311 312 1
e 312 337 1
e 312 313 1
e 313 338 1
e 314 339 1
e 314 315 1
e 315 340 1
e 315 316 1
e 316 341 1
e 316 317 1
e 317 342 1
e 317 318 1
e 318 343 1
e 318 319 1
e 319 344 1
e 320 321 1
e 321 322 1
e 322 323 1
e 323 345 1
e 323 324 1
e 324 346 1
e 324 325 1
e 325 347 1
e 325 326 1
e 326 348 1
e 326 327 1
e 327 349 1
e 327 328 1
e 328 350 1
e 328 329 1
e 329 351 1
e 329 330 1
e 330 352 1
e 330 331 1
e 331 353 1
e 331 332 1
e 332 354 1
e 332 333 1
e 333 355 1
e 333 334 1
e 334 356 1
e 334 335 1
e 335 357 1
e 335 336 1
e 336 358 1
e 336 337 1
e 337 359 1
e 337 338 1
e 338 360 1
e 339 361 1
e 339 340 1
e 340 362 1
e 340 341 1
e 341 363 1
e 341 342 1
e 342 364 1
e 342 343 1
e 343 365 1
e 343 344 1
e 344 366 1
e 345 367 1
e 345 346 1
e 346 368 1
e 346 347 1
e 347 369 1
e 347 348 1
e 348 370 1
e 348 349 1
e 349 371 1
e 349 350 1
e 350 372 1
e 350 351 1
e 351 373 1
e 351 352 1
e 352 374 1
e 352 353 1
e 353 375 1
e 353 354 1
e 354 376 1
e 354 355 1
e 355 377 1
e 355 356 1
e 356 378 1
e 356 357 1
e 357 379 1
e 357 358 1
e 358 380 1
e 358 359 1
e 359 381 1
e 359 360 1
e 360 382 1
e 361 383 1
e 361 362 1
e 362 384 1
e 362 363 1
e 363 385 1
e 363 364 1
e 364 386 1
e 364 365 1
e 365 387 1
e 365 366 1
e 366 388 1
e 367 368 1
e 368 389 1
e 368 369 1
e 369 390 1
e 369 370 1
e 370 391 1
e 370 371 1
e 371 392 1
e 371 372 1
e 372 393 1
e 372 373 1
e 373 394 1
e 373 374 1
e 374 395 1
e 374 375 1
e 375 396 1
e 375 376 1
e 376 397 1
e 376 377 1
e 377 398 1
e 377 378 1
e 378 399 1
e 378 379 1
e 379 400 1
e 379 380 1
e 380 401 1
e 380 381 1
e 381 402 1
e 381 382 1
e 382 403 1
e 383 384 1
e 384 404 1
e 384 385 1
e 385 405 1
e 385 386 1
e 386 406 1
e 386 387 1
e 387 407 1
e 387 388 1
e 388 408 1
e 389 409 1
e 389 390 1
e 390 410 1
e 390 391 1
e 391 411 1
e 391 392 1
e 392 412 1
e 392 393 1
e 393 413 1
e 393 394 1
e 394 414 1
e 394 395 1
e 395 415 1
e 395 396 1
e 396 416 1
e 396 397 1
e 397 417 1
e 397 398 1
e 398 418 1
e 398 399 1
e 399 419 1
e 399 400 1
e 400 420 1
e 400 401 1
e 401 421 1
e 401 402 1
e 402 422 1
e 402 403 1
e 403 423 1
e 404 405 1
e 405 406 1
e 406 407 1
e 407 408 1
e 409 424 1
e 409 410 1
e 410 425 1
e 410 411 1
e 411 426 1
e 411 412 1
e 412 427 1
e 412 413 1
e 413 428 1
e 413 414 1
e 414 429 1
e 414 415 1
e 415 430 1
e 415 416 1
e 416 431 1
e 416 417 1
e 417 432 1
e 417 418 1
e 418 433 1
e 418 419 1
e 419 434 1
e 419 420 1
e 420 435 1
e 420 421 1
e 421 436 1
e 421 422 1
e 422 437 1
e 422 423 1
e 423 438 1
e 424 440 1
e 424 425 1
e 425 441 1
e 425 426 1
e 426 442 1
e 426 427 1
e 427 443 1
e 427 428 1
e 428 444 1
e 428 429 1
e 429 445 1
e 429 430 1
e 430 446 1
e 430 431 1
e 431 447 1
e 431 432 1
e 432 448 1
e 432 433 1
e 433 449 1
e 433 434 1
e 434 450 1
e 434 435 1
e 435 451 1
e 435 436 1
e 436 452 1
e 436 437 1
e 437 453 1
e 437 438 1
e 438 454 1
e 438 439 1
e 439 455 1
e 440 456 1
e 440 441 1
e 441 457 1
e 441 442 1
e 442 458 1
e 442 443 1
e 443 459 1
e 443 444 1
e 444 460 1
e 444 445 1
e 445 461 1
e 445 446 1
e 446 462 1
e 446 447 1
e 447 463 1
e 447 448 1
e 448 464 1
e 448 449 1
e 449 465 1
e 449 450 1
e 450 466 1
e 450 451 1
e 451 467 1
e 451 452 1
e 452 468 1
e 452 453 1
e 453 469 1
e 453 454 1
e 454 470 1
e 454 455 1
e 455 471 1
e 456 477 1
e 456 457 1
e 457 478 1
e 457 458 1
e 458 479 1
e 458 459 1
e 459 480 1
e 459 460 1
e 460 481 1
e 460 461 1
e 461 482 1
e 461 462 1
e 462 483 1
e 462 463 1
e 463 484 1
e 463 464 1
e 464 485 1
e 464 465 1
e 465 486 1
e 465 466 1
e 466 487 1
e 466 467 1
e 467 488 1
e 467 468 1
e 468 489 1
e 468 469 1
e 469 490 1
e 469 470 1
e 470 491 1
e 470 471 1
e 471 492 1
e 471 472 1
e 472 493 1
e 473 496 1
e 473 474 1
e 474 497 1
e 474 475 1
e 475 498 1
e 475 476 1
e 476 499 1
e 477 500 1
e 477 478 1
e 478 501 1
e 478 479 1
e 479 502 1
e 479 480 1
e 480 503 1
e 480 481 1
e 481 504 1
e 481 482 1
e 482 505 1
e 482 483 1
e 483 484 1
e 484 485 1
e 485 486 1
e 486 487 1
e 487 488 1
e 488 506 1
e 488 489 1
e 489 507 1
e 489 490 1
e 490 508 1
e 490 491 1
e 491 509 1
e 491 492 1
e 492 510 1
e 492 493 1
e 493 511 1
e 493 494 1
e 494 512 1
e 494 495 1
e 495 513 1
e 495 496 1
e 496 514 1
e 496 497 1
e 497 515 1
e 497 498 1
e 498 516 1
e 498 499 1
e 499 517 1
e 500 518 1
e 500 501 1
e 501 519 1
e 501 502 1
e 502 520 1
e 502 503 1
e 503 521 1
e 503 504 1
e 504 522 1
e 504 505 1
e 505 523 1
e 506 524 1
e 506 507 1
e 507 525 1
e 507 508 1
e 508 526 1
e 508 509 1
e 509 527 1
e 509 510 1
e 510 528 1
e 510 511 1
e 511 529 1
e 511 512 1
e 512 530 1
e 512 513 1
e 513 531 1
e 513 514 1
e 514 532 1
e 514 515 1
e 515 533 1
e 515 516 1
e 516 534 1
e 516 517 1
e 517 535 1
e 518 536 1
e 518 519 1
e 519 537 1
e 519 520 1
e 520 538 1
e 520 521 1
e 521 539 1
e 521 522 1
e 522 540 1
e 522 523 1
e 523 541 1
e 524 543 1
e 524 525 1
e 525 544 1
e 525 526 1
e 526 545 1
e 526 527 1
e 527 546 1
e 527 528 1
e 528 547 1
e 528 529 1
e 529 548 1
e 529 530 1
e 530 549 1
e 530 531 1
e 531 550 1
e 531 532 1
e 532 551 1
e 532 533 1
e 533 552 1
e 533 534 1
e 534 553 1
e 534 535 1
e 535 554 1
e 536 555 1
e 536 537 1
e 537 556 1
e 537 538 1
e 538 557 1
e 538 539 1
e 539 558 1
e 539 540 1
e 540 559 1
e 540 541 1
e 541 560 1
e 541 542 1
e 543 561 1
e 543 544 1
e 544 562 1
e 544 545 1
e 545 563 1
e 545 546 1
e 546 564 1
e 546 547 1
e 547 565 1
e 547 548 1
e 548 566 1
e 548 549 1
e 549 567 1
e 549 550 1
e 550 568 1
e 550 551 1
e 551 569 1
e 551 552 1
e 552 570 1
e 552 553 1
e 553 571 1
e 553 554 1
e 554 572 1
e 555 573 1
e 555 556 1
e 556 574 1
e 556 557 1
e 557 575 1
e 557 558 1
e 558 576 1
e 558 559 1
e 559 577 1
e 559 560 1
e 560 578 1
e 561 579 1
e 561 562 1
e 562 580 1
e 562 563 1
e 563 581 1
e 563 564 1
e 564 582 1
e 564 565 1
e 565 583 1
e 565 566 1
e 566 584 1
e 566 567 1
e 567 585 1
e 567 568 1
e 568 586 1
e 568 569 1
e 569 587 1
e 569 570 1
e 570 588 1
e 570 571 1
e 571 589 1
e 571 572 1
e 572 590 1
e 573 591 1
e 573 574 1
e 574 592 1
e 574 575 1
e 575 593 1
e 575 576 1
e 576 594 1
e 576 577 1
e 577 595 1
e 577 578 1
e 578 596 1
e 579 599 1
e 579 580 1
e 580 600 1
e 580 581 1
e 581 601 1
e 581 582 1
e 582 602 1
e 582 583 1
e 583 603 1
e 583 584 1
e 584 604 1
e 584 585 1
e 585 605 1
e 585 586 1
e 586 606 1
e 586 587 1
e 587 607 1
e 587 588 1
e 588 608 1
e 588 589 1
e 589 609 1
e 589 590 1
e 590 610 1
e 591 611 1
e 591 592 1
e 592 612 1
e 592 593 1
e 593 613 1
e 593 594 1
e 594 614 1
e 594 595 1
e 595 615 1
e 595 596 1
e 596 616 1
e 596 597 1
e 597 617 1
e 598 621 1
e 598 599 1
e 599 622 1
e 599 600 1
e 600 623 1
e 600 601 1
e 601 624 1
e 601 602 1
e 602 625 1
e 602 603 1
e 603 626 1
e 603 604 1
e 604 627 1
e 604 605 1
e 605 628 1
e 605 606 1
e 606 629 1
e 606 607 1
e 607 630 1
e 607 608 1
e 608 631 1
e 608 609 1
e 609 632 1
e 609 610 1
e 610 633 1
e 611 636 1
e 611 612 1
e 612 637 1
e 612 613 1
e 613 638 1
e 613 614 1
e 614 639 1
e 614 615 1
e 615 640 1
e 615 616 1
e 616 641 1
e 616 617 1
e 617 642 1
e 617 618 1
e 618 643 1
e 618 619 1
e 619 644 1
e 619 620 1
e 620 645 1
e 620 621 1
e 621 646 1
e 621 622 1
e 622 647 1
e 622 623 1
e 623 648 1
e 623 624 1
e 624 649 1
e 624 625 1
e 625 650 1
e 625 626 1
e 626 651 1
e 626 627 1
e 627 652 1
e 627 628 1
e 628 653 1
e 628 629 1
e 629 654 1
e 629 630 1
e 630 655 1
e 630 631 1
e 631 656 1
e 631 632 1
e 632 657 1
e 632 633 1
e 633 658 1
e 634 659 1
e 634 635 1
e 635 660 1
e 635 636 1
e 636 661 1
e 636 637 1
e 637 662 1
e 637 638 1
e 638 663 1
e 638 639 1
e 639 664 1
e 639 640 1
e 640 665 1
e 640 641 1
e 641 666 1
e 641 642 1
e 642 667 1
e 642 643 1
e 643 668 1
e 643 644 1
e 644 669 1
e 644 645 1
e 645 670 1
e 645 646 1
e 646 671 1
e 646 647 1
e 647 672 1
e 647 648 1
e 648 673 1
e 648 649 1
e 649 674 1
e 649 650 1
e 650 675 1
e 650 651 1
e 651 676 1
e 651 652 1
e 652 677 1
e 652 653 1
e 653 678 1
e 653 654 1
e 654 679 1
e 654 655 1
e 655 680 1
e 655 656 1
e 656 681 1
e 656 657 1
e 657 682 1
e 657 658 1
e 658 683 1
e 659 684 1
e 659 660 1
e 660 685 1
e 660 661 1
e 661 686 1
e 661 662 1
e 662 687 1
e 662 663 1
e 663 688 1
e 663 664 1
e 664 689 1
e 664 665 1
e 665 690 1
e 665 666 1
e 666 691 1
e 666 667 1
e 667 692 1
e 667 668 1
e 668 693 1
e 668 669 1
e 669 694 1
e 669 670 1
e 670 695 1
e 670 671 1
e 671 696 1
e 671 672 1
e 672 697 1
e 672 673 1
e 673 698 1
e 673 674 1
e 674 699 1
e 674 675 1
e 675 700 1
e 675 676 1
e 676 701 1
e 676 677 1
e 677 702 1
e 677 678 1
e 678 703 1
e 678 679 1
e 679 704 1
e 679 680 1
e 680 705 1
e 680 681 1
e 681 706 1
e 681 682 1
e 682 707 1
e 682 683 1
e 684 708 1
e 684 685 1
e 685 709 1
e 685 686 1
e 686 710 1
e 686 687 1
e 687 711 1
e 687 688 1
e 688 712 1
e 688 689 1
e 689 713 1
e 689 690 1
e 690 714 1
e 690 691 1
e 691 715 1
e 691 692 1
e 692 716 1
e 692 693 1
e 693 717 1
e 693 694 1
e 694 718 1
e 694 695 1
e 695 719 1
e 695 696 1
e 696 720 1
e 696 697 1
e 697 721 1
e 697 698 1
e 698 722 1
e 698 699 1
e 699 723 1
e 699 700 1
e 700 724 1
e 700 701 1
e 701 725 1
e 701 702 1
e 702 726 1
e 702 703 1
e 703 727 1
e 703 704 1
e 704 728 1
e 704 705 1
e 705 729 1
e 705 706 1
e 706 730 1
e 706 707 1
e 707 731 1
e 708 732 1
e 708 709 1
e 709 733 1
e 709 710 1
e 710 734 1
e 710 711 1
e 711 735 1
e 711 712 1
e 712 736 1
e 712 713 1
e 713 737 1
e 713 714 1
e 714 738 1
e 714 715 1
e 715 739 1
e 715 716 1
e 716 740 1
e 716 717 1
e 717 741 1
e 717 718 1
e 718 742 1
e 718 719 1
e 719 743 1
e 719 720 1
e 720 744 1
e 720 721 1
e 721 745 1
e 721 722 1
e 722 746 1
e 722 723 1
e 723 747 1
e 723 724 1
e 724 748 1
e 724 725 1
e 725 749 1
e 725 726 1
e 726 750 1
e 726 727 1
e 727 751 1
e 727 728 1
e 728 752 1
e 728 729 1
e 729 753 1
e 729 730 1
e 730 754 1
e 730 731 1
e 731 755 1
e 732 733 1
e 733 756 1
e 733 734 1
e 734 757 1
e 734 735 1
e 735 758 1
e 735 736 1
e 736 759 1
e 736 737 1
e 737 760 1
e 737 738 1
e 738 761 1
e 738 739 1
e 739 762 1
e 739 740 1
e 740 763 1
e 740 741 1
e 741 764 1
e 741 742 1
e 742 765 1
e 742 743 1
e 743 766 1
e 743 744 1
e 744 767 1
e 744 745 1
e 745 768 1
e 745 746 1
e 746 769 1
e 746 747 1
e 747 770 1
e 747 748 1
e 748 771 1
e 748 749 1
e 749 772 1
e 749 750 1
e 750 773 1
e 750 751 1
e 751 774 1
e 751 752 1
e 752 775 1
e 752 753 1
e 753 776 1
e 753 754 1
e 754 777 1
e 754 755 1
e 755 778 1
e 756 757 1
e 757 779 1
e 757 758 1
e 758 780 1
e 758 759 1
e 759 781 1
e 759 760 1
e 760 782 1
e 760 761 1
e 761 783 1
e 761 762 1
e 762 784 1
e 762 763 1
e 763 785 1
e 763 764 1
e 764 786 1
e 764 765 1
e 765 787 1
e 765 766 1
e 766 788 1
e 766 767 1
e 767 789 1
e 767 768 1
e 768 790 1
e 768 769 1
e 769 791 1
e 769 770 1
e 770 792 1
e 770 771 1
e 771 793 1
e 771 772 1
e 772 794 1
e 772 773 1
e 773 795 1
e 773 774 1
e 774 796 1
e 774 775 1
e 775 797 1
e 775 776 1
e 776 798 1
e 776 777 1
e 777 799 1
e 777 778 1
e 778 800 1
e 779 780 1
e 780 801 1
e 780 781 1
e 781 802 1
e 781 782 1
e 782 803 1
e 782 783 1
e 783 804 1
e 783 784 1
e 784 805 1
e 784 785 1
e 785 806 1
e 785 786 1
e 786 807 1
e 786 787 1
e 787 808 1
e 787 788 1
e 788 809 1
e 788 789 1
e 789 810 1
e 789 790 1
e 790 811 1
e 790 791 1
e 791 812 1
e 791 792 1
e 792 813 1
e 792 793 1
e 793 814 1
e 793 794 1
e 794 815 1
e 794 795 1
e 795 796 1
e 796 797 1
e 797 816 1
e 797 798 1
e 798 817 1
e 798 799 1
e 799 818 1
e 799 800 1
e 801 802 1
e 802 803 1
e 803 804 1
e 804 805 1
e 805 806 1
e 806 807 1
e 807 819 1
e 807 808 1
e 808 820 1
e 808 809 1
e 809 821 1
e 809 810 1
e 810 822 1
e 810 811 1
e 811 823 1
e 811 812 1
e 812 824 1
e 812 813 1
e 813 825 1
e 813 814 1
e 814 826 1
e 814 815 1
e 815 827 1
e 816 828 1
e 816 817 1
e 817 829 1
e 817 818 1
e 818 830 1
e 819 831 1
e 819 820 1
e 820 832 1
e 820 821 1
e 821 833 1
e 821 822 1
e 822 834 1
e 822 823 1
e 823 835 1
e 823 824 1
e 824 836 1
e 824 825 1
e 825 837 1
e 825 826 1
e 826 838 1
e 826 827 1
e 828 829 1
e 829 830 1
e 831 839 1
e 831 832 1
e 832 840 1
e 832 833 1
e 833 841 1
e 833 834 1
e 834 842 1
e 834 835 1
e 835 843 1
e 835 836 1
e 836 844 1
e 836 837 1
e 837 845 1
e 837 838 1
e 838 846 1
e 839 840 1
e 840 841 1
e 841 847 1
e 841 842 1
e 842 848 1
e 842 843 1
e 843 849 1
e 843 844 1
e 844 845 1
e 845 846 1
e 847 850 1
e 847 848 1
e 848 851 1
e 848 849 1
e 849 852 1
e 850 851 1
e 851 852 1